(set-info :origin "SVCOMP13 benchmarks generated by Arie Gurfinkel")
(set-info :status unsat)
(set-logic HORN)
(declare-fun cp-rel-bb1.i.i (Real Real Real) Bool)
(declare-fun cp-rel-entry () Bool)
(declare-fun cp-rel-bb1.i.i21.i.i () Bool)
(assert |cp-rel-entry|)
(assert (forall ((?A Real) (?B Real) (?C Real) (?D Bool) )(let (($x788317 (and |cp-rel-entry| (<= ?C 1.0) (>= ?B 0.0) (<= ?B 0.0) (>= ?A 0.0) (<= ?A 0.0) (= ?D true) (>= ?C 1.0))))
(=> $x788317 (|cp-rel-bb1.i.i| ?A ?B ?C))))
)
(assert (forall ((?A Real) (?B Real) (?C Real) (?D Real) (?E Real) (?F Real) (?G Bool) (?H Bool) (?I Bool) (?J Bool) (?K Bool) (?L Bool) (?M Real) (?N Real) (?O Bool) (?P Bool) (?Q Bool) (?R Bool) (?S Bool) (?T Bool) (?U Real) (?V Real) (?W Bool) (?X Bool) (?Y Bool) (?Z Bool) (?A1 Bool) (?B1 Bool) (?C1 Real) (?D1 Real) (?E1 Bool) (?F1 Bool) (?G1 Bool) (?H1 Bool) (?I1 Bool) (?J1 Bool) (?K1 Real) (?L1 Real) (?M1 Bool) (?N1 Bool) (?O1 Real) (?P1 Bool) (?Q1 Real) (?R1 Real) (?S1 Bool) (?T1 Bool) (?U1 Real) (?V1 Bool) (?W1 Bool) (?X1 Bool) (?Y1 Bool) )(let (($x837190 (|cp-rel-bb1.i.i| ?D ?E ?F)))
(let (($x261815 (= ?N1 (or ?Y1 ?X1))))
(let (($x195405 (or (not ?G) (and ?H ?I (not ?J)))))
(let (($x435054 (or (not ?G) ?I)))
(let (($x454588 (not ?K)))
(let (($x381025 (or $x454588 (and ?G ?L (<= ?M ?N) (>= ?M ?N)) (and ?H ?O ?J (<= ?M ?C) (>= ?M ?C)))))
(let (($x326156 (or $x454588 (and ?L (not ?O)) (and ?O (not ?L)))))
(let (($x215371 (or (not ?P) (and ?K ?Q (not ?R)))))
(let (($x472722 (or (not ?P) ?Q)))
(let (($x623325 (not ?S)))
(let (($x867145 (or $x623325 (and ?P ?T (<= ?U ?V) (>= ?U ?V)) (and ?K ?W ?R (<= ?U ?B) (>= ?U ?B)))))
(let (($x242034 (or $x623325 (and ?T (not ?W)) (and ?W (not ?T)))))
(let (($x509373 (or (not ?X) (and ?S ?Y (not ?Z)))))
(let (($x842821 (or (not ?X) ?Y)))
(let (($x623034 (or (not ?A1) (and ?X ?B1 (<= ?C1 ?D1) (>= ?C1 ?D1)) (and ?S ?E1 ?Z (<= ?C1 ?M) (>= ?C1 ?M)))))
(let (($x921429 (or (not ?A1) (and ?B1 (not ?E1)) (and ?E1 (not ?B1)))))
(let (($x866824 (or (not ?F1) (and ?A1 ?G1 ?H1))))
(let (($x365279 (or (not ?F1) ?G1)))
(let (($x443838 (not ?I1)))
(let (($x400329 (or $x443838 (and ?F1 ?J1 (<= ?K1 ?L1) (>= ?K1 ?L1)) (and ?A1 ?M1 (not ?H1) (<= ?K1 ?A) (>= ?K1 ?A)))))
(let (($x789186 (or $x443838 (and ?J1 (not ?M1)) (and ?M1 (not ?J1)))))
(let (($x153700 (= ?I1 true)))
(let (($x320916 (= ?N1 true)))
(let (($x247047 (= ?J (= ?O1 0.0))))
(let (($x77708 (= ?Q1 (ite ?P1 1.0 0.0))))
(let (($x289603 (= ?R (= ?R1 0.0))))
(let (($x30142 (= ?V (ite ?S1 1.0 0.0))))
(let (($x383862 (= ?T1 (not (<= ?M 0.0)))))
(let (($x335068 (= ?U1 (+ (~ 1.0) ?M))))
(let (($x191941 (= ?D1 (ite ?T1 ?U1 ?M))))
(let (($x916834 (= ?V1 (not (<= ?C1 1.0)))))
(let (($x306928 (= ?H1 (and ?V1 ?Z))))
(let (($x49825 (= ?W1 (= ?U 0.0))))
(let (($x521881 (= ?X1 (= ?U 0.0))))
(let (($x409724 (= ?Y1 (= ?K1 0.0))))
(let (($x851891 (and (|cp-rel-bb1.i.i| ?A ?B ?C) $x409724 $x521881 (= ?L1 (ite ?W1 1.0 ?A)) $x49825 $x306928 $x916834 $x191941 $x335068 $x383862 (= ?Z (= ?A 0.0)) $x30142 (= ?S1 (= ?B 0.0)) $x289603 (= ?N (+ ?Q1 ?C)) $x77708 (= ?P1 (not (<= 2.0 ?C))) $x247047 (>= ?F ?C1) (<= ?F ?C1) (>= ?E ?U) (<= ?E ?U) (>= ?D ?K1) (<= ?D ?K1) $x320916 $x153700 $x789186 $x400329 $x365279 $x866824 $x921429 $x623034 $x842821 $x509373 $x242034 $x867145 $x472722 $x215371 $x326156 $x381025 $x435054 $x195405 $x261815)))
(=> $x851891 $x837190))))))))))))))))))))))))))))))))))))))
)
(assert (forall ((?A Real) (?B Real) (?C Real) (?D Bool) (?E Bool) (?F Bool) (?G Bool) (?H Bool) (?I Bool) (?J Real) (?K Real) (?L Bool) (?M Bool) (?N Bool) (?O Bool) (?P Bool) (?Q Bool) (?R Real) (?S Real) (?T Bool) (?U Bool) (?V Bool) (?W Bool) (?X Bool) (?Y Bool) (?Z Real) (?A1 Real) (?B1 Bool) (?C1 Bool) (?D1 Bool) (?E1 Bool) (?F1 Bool) (?G1 Bool) (?H1 Real) (?I1 Real) (?J1 Bool) (?K1 Bool) (?L1 Real) (?M1 Bool) (?N1 Real) (?O1 Real) (?P1 Bool) (?Q1 Bool) (?R1 Real) (?S1 Bool) (?T1 Bool) (?U1 Bool) (?V1 Bool) )(let (($x261815 (= ?K1 (or ?V1 ?U1))))
(let (($x195405 (or (not ?D) (and ?E ?F (not ?G)))))
(let (($x435054 (or (not ?D) ?F)))
(let (($x454588 (not ?H)))
(let (($x564235 (or $x454588 (and ?D ?I (<= ?J ?K) (>= ?J ?K)) (and ?E ?L ?G (<= ?J ?C) (>= ?J ?C)))))
(let (($x326156 (or $x454588 (and ?I (not ?L)) (and ?L (not ?I)))))
(let (($x215371 (or (not ?M) (and ?H ?N (not ?O)))))
(let (($x472722 (or (not ?M) ?N)))
(let (($x623325 (not ?P)))
(let (($x628228 (or $x623325 (and ?M ?Q (<= ?R ?S) (>= ?R ?S)) (and ?H ?T ?O (<= ?R ?B) (>= ?R ?B)))))
(let (($x242034 (or $x623325 (and ?Q (not ?T)) (and ?T (not ?Q)))))
(let (($x509373 (or (not ?U) (and ?P ?V (not ?W)))))
(let (($x842821 (or (not ?U) ?V)))
(let (($x623034 (or (not ?X) (and ?U ?Y (<= ?Z ?A1) (>= ?Z ?A1)) (and ?P ?B1 ?W (<= ?Z ?J) (>= ?Z ?J)))))
(let (($x921429 (or (not ?X) (and ?Y (not ?B1)) (and ?B1 (not ?Y)))))
(let (($x866824 (or (not ?C1) (and ?X ?D1 ?E1))))
(let (($x365279 (or (not ?C1) ?D1)))
(let (($x443838 (not ?F1)))
(let (($x177701 (or $x443838 (and ?C1 ?G1 (<= ?H1 ?I1) (>= ?H1 ?I1)) (and ?X ?J1 (not ?E1) (<= ?H1 ?A) (>= ?H1 ?A)))))
(let (($x789186 (or $x443838 (and ?G1 (not ?J1)) (and ?J1 (not ?G1)))))
(let (($x153700 (= ?F1 true)))
(let (($x247047 (= ?G (= ?L1 0.0))))
(let (($x77708 (= ?N1 (ite ?M1 1.0 0.0))))
(let (($x289603 (= ?O (= ?O1 0.0))))
(let (($x30142 (= ?S (ite ?P1 1.0 0.0))))
(let (($x383862 (= ?Q1 (not (<= ?J 0.0)))))
(let (($x335068 (= ?R1 (+ (~ 1.0) ?J))))
(let (($x191941 (= ?A1 (ite ?Q1 ?R1 ?J))))
(let (($x916834 (= ?S1 (not (<= ?Z 1.0)))))
(let (($x306928 (= ?E1 (and ?S1 ?W))))
(let (($x49825 (= ?T1 (= ?R 0.0))))
(let (($x521881 (= ?U1 (= ?R 0.0))))
(let (($x409724 (= ?V1 (= ?H1 0.0))))
(let (($x837190 (|cp-rel-bb1.i.i| ?A ?B ?C)))
(let (($x510111 (and $x837190 $x409724 $x521881 (= ?I1 (ite ?T1 1.0 ?A)) $x49825 $x306928 $x916834 $x191941 $x335068 $x383862 (= ?W (= ?A 0.0)) $x30142 (= ?P1 (= ?B 0.0)) $x289603 (= ?K (+ ?N1 ?C)) $x77708 (= ?M1 (not (<= 2.0 ?C))) $x247047 (not (= ?K1 true)) $x153700 $x789186 $x177701 $x365279 $x866824 $x921429 $x623034 $x842821 $x509373 $x242034 $x628228 $x472722 $x215371 $x326156 $x564235 $x435054 $x195405 $x261815)))
(=> $x510111 |cp-rel-bb1.i.i21.i.i|)))))))))))))))))))))))))))))))))))))
)
(assert (not cp-rel-bb1.i.i21.i.i))
(check-sat)
